111
0 69 88 47 7 16 61 80 26 71 
64 97 30 82 8 63 14 13 104 2 
31 42 105 28 27 29 50 40 3 72 
59 94 4 91 20 101 107 41 34 37 
99 1 19 57 92 77 46 49 66 54 
86 6 76 96 85 67 98 109 83 23 
9 36 44 53 51 93 21 65 35 25 
84 12 100 56 68 106 11 89 10 108 
22 81 24 52 43 58 15 33 75 90 
48 110 18 60 62 32 78 102 39 87 
55 5 74 17 79 73 45 103 95 70 
38 
